%BLOCK LATTICE_CART
    4.11924000000000    0.00000000000000    0.00000000000000
    2.56618704779682    3.22281394619979    0.00000000000000
   -3.30050446670090   -1.69970355249262    1.78442389037228
%ENDBLOCK LATTICE_CART

%BLOCK POSITIONS_FRAC
H    0.45550898248170    0.78036816528010    0.67519811338140
H    0.54449012650610    0.21964113008440    0.32480923618200
H    0.46163211257330    0.64625501382490    0.81527445296820
H    0.53836572804010    0.35373531628050    0.18471238954170
H    0.10509713768600    0.78022795601770    0.32477198188850
H    0.89490247745690    0.21978064648030    0.67523636340250
H    0.84830407633590    0.84831148279220   -0.00003917148160
H    0.15169076600820    0.15169321744800    0.00004618055060
H    0.16886029112170    0.35353638254680    0.81518560880080
H    0.83114126027880    0.64645316153790    0.18480559127730
H    0.92881975856770    0.42895463156530    0.49981203759640
H    0.07117799223280    0.57104161985060    0.50018202155490
Sc    0.50000929071090    0.00000127629120    0.50000519433740
%ENDBLOCK POSITIONS_FRAC
