%BLOCK LATTICE_ABC
  31.840886745504424  30.295998549917527  64.819798337868960
  86.974586658032862  90.111259361331392  91.888555583521367
%ENDBLOCK LATTICE_ABC

%BLOCK POSITIONS_FRAC
  Pb   0.038896430692184   0.008939146157854   0.000327082385508
  Pb   0.078236733830546   0.085078272167738   0.036184208973899
  Pb   0.969425897996594   0.069138145233755   0.030443834662965
  Pb   0.023062640767325   0.985800071329036   0.056617776848613
  Pb   0.021873303191727   0.166569011470508   0.009447492720576
  Pb   0.054084275940664   0.245540140793003   0.044921835035990
  Pb   0.946840549645605   0.228016354997082   0.038600342256517
  Pb   0.003406901798257   0.145926961892140   0.064692572992527
  Pb   0.992248808089591   0.329245428133866   0.018591473252491
  Pb   0.028177352520542   0.407071146417141   0.054172721876135
  Pb   0.919105031317236   0.389963743042192   0.048478929618459
  Pb   0.979699500679877   0.307075019838852   0.073377529825593
  Pb   0.966298342298608   0.491929033560009   0.029652185062215
  Pb   0.004366917464175   0.569119451780233   0.063352432170370
  Pb   0.897283056800747   0.553740094368326   0.056993009702005
  Pb   0.956221399702155   0.469137703631720   0.082326544475805
  Pb   0.948199935003577   0.653316853994366   0.036935083221092
  Pb   0.986654874136405   0.727706626881159   0.069870390157250
  Pb   0.880302775346688   0.713507140812064   0.063177198824733
  Pb   0.936171594258936   0.630033661079152   0.089922755202072
  Pb   0.934113838550236   0.810835580863149   0.041898470865521
  Pb   0.970502863923489   0.887029440534500   0.076605422245976
  Pb   0.862626286417382   0.871269090591894   0.069595392043319
  Pb   0.918399618969768   0.789124765621723   0.096649003914106
  Pb   0.917209778189156   0.970826717862026   0.050057411137987
  Pb   0.951677636804470   0.047220093119339   0.084499159130146
  Pb   0.843011800013729   0.030153625766397   0.077960434759857
  Pb   0.900031996113770   0.948632145195120   0.104182793083094
  Pb   0.007562100835291   0.964508802179395   0.111023941167043
  Pb   0.045127827683093   0.042320203326004   0.145355433871897
  Pb   0.937493216228174   0.026561831577895   0.138482766092115
  Pb   0.994872849990395   0.944145481010638   0.164944074637747
  Pb   0.776739691825645   0.292359738737224   0.006392547534923
  Pb   0.809771083740565   0.373801402495551   0.043085649611005
  Pb   0.702734099017233   0.360108297216582   0.035232223043596
  Pb   0.763576191058344   0.273139281770757   0.060430992685235
  Pb   0.748713194215356   0.466808278616435   0.019446276941099
  Pb   0.788522845229069   0.540912562628934   0.051349284777241
  Pb   0.680093863302298   0.523360374718386   0.043492189979253
  Pb   0.739946928588082   0.438338520132960   0.069468972089946
  Pb   0.729955955590970   0.621170559679035   0.023100577185248
  Pb   0.770445988623997   0.696781753669771   0.056524262790970
  Pb   0.662396906918454   0.677472953391388   0.048811374376972
  Pb   0.719919875902498   0.598309072445839   0.076412301834600
  Pb   0.714332098393196   0.773328451836356   0.027542171104585
  Pb   0.752992105295374   0.852456818732281   0.063311089182759
  Pb   0.644497180025878   0.832183861857902   0.058254201744728
  Pb   0.701533572963979   0.755163213251653   0.083353545689341
  Pb   0.694275995668237   0.927828902164593   0.039571504713924
  Pb   0.733224002750581   0.011151330201677   0.072023994965571
  Pb   0.624693680502325   0.992131010799890   0.066584836405261
  Pb   0.682466494534723   0.913045961106179   0.091777549019638
  Pb   0.894742699068357   0.128767047351606   0.058426470020483
  Pb   0.930353641122408   0.207593935517522   0.092726409143432
  Pb   0.821913108856043   0.190504598579347   0.086220798048702
  Pb   0.879951489800647   0.108680566986753   0.112228464510872
  Pb   0.871220535589148   0.290134647511631   0.067080809050468
  Pb   0.907658035914056   0.369344926335558   0.101345962067693
  Pb   0.799587030489100   0.353182986174013   0.094824825967442
  Pb   0.858728110086607   0.269932357185823   0.120462761709971
  Pb   0.847945322028966   0.453597252268045   0.076221963820674
  Pb   0.886480825893800   0.531105547377599   0.109462677196071
  Pb   0.778473605197617   0.515548852678303   0.102845504491251
  Pb   0.837415568830045   0.431809241023587   0.128699349319336
  Pb   0.828495352549510   0.614982285389073   0.083456892393824
  Pb   0.867373794414458   0.691096830861217   0.116667412325097
  Pb   0.759173968974162   0.674864604066905   0.109947482146105
  Pb   0.817367402161723   0.592663928651958   0.136357587369837
  Pb   0.810206473985003   0.772913810234462   0.089890814194657
  Pb   0.848706954495843   0.850288911548604   0.123953457306330
  Pb   0.740308650960127   0.833357171932899   0.117443835697807
  Pb   0.798185432321439   0.752233021034391   0.143754812469354
  Pb   0.791297229292675   0.931395314276801   0.097646337606019
  Pb   0.829367903591581   0.010106468370777   0.131816866081561
  Pb   0.720920498415706   0.992974883657046   0.125408533967944
  Pb   0.778983977997581   0.911857940154409   0.151469835025861
  Pb   0.988045323298184   0.125069603187914   0.118901715217976
  Pb   0.025205004208289   0.203256802791182   0.153302853108750
  Pb   0.917297758851685   0.187322671519184   0.146488704532274
  Pb   0.975458820326843   0.104809732740195   0.172752749794796
  Pb   0.966804382622598   0.286181404230647   0.127132871510863
  Pb   0.004392236645576   0.364452960414963   0.161411443137730
  Pb   0.896455949593513   0.348629435839482   0.154617239159618
  Pb   0.955324098887874   0.265817092984815   0.180733843372732
  Pb   0.945364974014481   0.447606722913121   0.135372645895310
  Pb   0.983818207365662   0.525432790825027   0.169352143179376
  Pb   0.876010697175570   0.509778160365343   0.162548009738163
  Pb   0.934999554477960   0.426906103820952   0.188706892066326
  Pb   0.925194745968396   0.608350628628576   0.143100442184142
  Pb   0.964149095195998   0.685843593950195   0.176981614724827
  Pb   0.856393000004147   0.670153631764167   0.170160097413868
  Pb   0.915076767023325   0.587643194433047   0.196495578647648
  Pb   0.906141314917664   0.768275450543742   0.150497976884685
  Pb   0.945012533611521   0.846066666389671   0.184562110141674
  Pb   0.837143645239452   0.830152179119342   0.177772923752608
  Pb   0.895606579388104   0.748006040660684   0.204165409443910
  Pb   0.887124306584997   0.928266782536672   0.158116333599524
  Pb   0.925749247925228   0.006530420539819   0.192304714603162
  Pb   0.817755973807624   0.990442237640092   0.185567179674180
  Pb   0.876258824077450   0.908382188650703   0.211900641020345
  Pb   0.003352901315921   0.763692575014312   0.211019616806781
  Pb   0.042805985082690   0.841837861333025   0.245161019849226
  Pb   0.935048909556326   0.826143372093058   0.238294295709711
  Pb   0.994232436310225   0.743794060489877   0.264696569684902
  Pb   0.984108068865334   0.924206438539919   0.218717728661412
  Pb   0.023539487489197   0.002567132064104   0.252921148632220
  Pb   0.915672754955404   0.986788895828871   0.246090964532332
  Pb   0.974768156618480   0.904500254045424   0.272498796591840
  Pb   0.514844676365375   0.586160229522551   0.007769312545057
  Pb   0.554797404372694   0.662884667595455   0.042955705879538
  Pb   0.445152612324762   0.646178691624577   0.038146522795621
  Pb   0.505420847069139   0.564855206829019   0.062977823425463
  Pb   0.494523370754487   0.746422804191239   0.020785891311872
  Pb   0.537889110347027   0.817841269766157   0.053346317155872
  Pb   0.424144098247279   0.803216998355537   0.046997624176014
  Pb   0.484287567872231   0.723484793533284   0.071743559001744
  Pb   0.480286080282071   0.893876853063132   0.030400622231615
  Pb   0.517371527270732   0.974117718722728   0.061002137982852
  Pb   0.406163478290997   0.957544059414245   0.053705118397427
  Pb   0.465535348290075   0.879908410829907   0.079903962491838
  Pb   0.675548839387517   0.090942297091555   0.046455219666904
  Pb   0.714086292202637   0.172874567993989   0.079683319252989
  Pb   0.606102681286226   0.154781314057397   0.073192389866731
  Pb   0.663069286219645   0.073772861651910   0.099484824153623
  Pb   0.658137232017511   0.255841762962992   0.053311833402988
  Pb   0.692274656169633   0.336842375515145   0.087917365616291
  Pb   0.585604156201430   0.319242175444423   0.081107546179288
  Pb   0.643373291696561   0.236336725201344   0.107111314148376
  Pb   0.633251368900832   0.421627684635791   0.061967945215537
  Pb   0.670795004973900   0.499183151757925   0.095872678262413
  Pb   0.564215396537853   0.482442611435392   0.089009051708810
  Pb   0.622333571317127   0.399293910842955   0.115106864788902
  Pb   0.612560692639346   0.581346970055960   0.069238703646166
  Pb   0.651106757544699   0.658152676296527   0.103209380796831
  Pb   0.543175318531631   0.642136292281287   0.096851043901720
  Pb   0.601727847215601   0.560276459764052   0.122847189084195
  Pb   0.593416086034499   0.738608065032440   0.077297710872280
  Pb   0.632012317037160   0.816279004649462   0.111252285833461
  Pb   0.523729355198194   0.800335140568811   0.105152327839527
  Pb   0.581896068366178   0.719578938239192   0.130701166429962
  Pb   0.574560345838528   0.895794072218062   0.086077694338308
  Pb   0.612659729835100   0.975793859597940   0.119181025779259
  Pb   0.504489493799509   0.959219555197468   0.112862113204189
  Pb   0.562533118918340   0.878728365491807   0.138661319626825
  Pb   0.771465522978507   0.091483547492963   0.105745442391708
  Pb   0.809227952368288   0.170907575156864   0.139819831146525
  Pb   0.701216834576484   0.154123123663971   0.133227351571783
  Pb   0.759401018818332   0.072300459102349   0.159349934858933
  Pb   0.750853167707262   0.253331926789983   0.113801244297175
  Pb   0.788535756554171   0.332554116772818   0.147900509375718
  Pb   0.680832400007844   0.316230317657747   0.141157327576104
  Pb   0.739422585192169   0.233590148486973   0.167258158896679
  Pb   0.729626832651228   0.415786224903705   0.121945804562539
  Pb   0.768121847206147   0.493926298565401   0.155796111365275
  Pb   0.660361881055495   0.477827352395110   0.149022268221622
  Pb   0.719217584690699   0.395099727818868   0.175169358132420
  Pb   0.709402116876213   0.576546842262446   0.129583461352382
  Pb   0.748418508172246   0.654178666467594   0.163418848651115
  Pb   0.640423472796705   0.638071983752202   0.156735854208061
  Pb   0.699248093001384   0.555959044533769   0.182947575932513
  Pb   0.690020539071597   0.735781288644609   0.137150714099868
  Pb   0.729043471373721   0.813932697459011   0.171114858613591
  Pb   0.620886635989130   0.797693698618715   0.164565080324011
  Pb   0.679592596266774   0.716114986831218   0.190696589748762
  Pb   0.670717178248460   0.895137149296216   0.145027312902582
  Pb   0.709611519335734   0.974099943532050   0.178942275833868
  Pb   0.601469112654306   0.957763393135393   0.172381960252986
  Pb   0.660076749754736   0.876221327149303   0.198519226145996
  Pb   0.867522043406404   0.088755122899907   0.165987324016774
  Pb   0.906095943597577   0.167342934179092   0.200185388917082
  Pb   0.798085631002488   0.151267559169382   0.193447059647349
  Pb   0.856817438899035   0.069037280106475   0.219730460744118
  Pb   0.847369882379666   0.249826227521413   0.173969112390737
  Pb   0.886174833543572   0.328389728262000   0.208111829860748
  Pb   0.778207896552431   0.312458547357474   0.201346108309953
  Pb   0.837266220563588   0.229979606095193   0.227599024999269
  Pb   0.827094856124905   0.411085992192020   0.181928173124219
  Pb   0.866304323033361   0.489318893727297   0.215966749566505
  Pb   0.758350469704913   0.473505377554170   0.209182787357807
  Pb   0.817660717748981   0.390981064416054   0.235447850551179
  Pb   0.807195943724588   0.571877658262070   0.189705167917734
  Pb   0.846650257281247   0.649900408979386   0.223725918295996
  Pb   0.738649734204456   0.634074282580580   0.216951616226556
  Pb   0.798048750099005   0.551754427348345   0.243248151239297
  Pb   0.787662529480999   0.732122451873573   0.197395709793455
  Pb   0.827121430723237   0.810316769993740   0.231495444330919
  Pb   0.719041125866911   0.794390808100526   0.224756260487234
  Pb   0.778400035878365   0.712286494679587   0.251058509066893
  Pb   0.768218102424826   0.892347146498842   0.205172788776911
  Pb   0.807645270185312   0.970878276985061   0.239325941861677
  Pb   0.699504891539495   0.954882746295778   0.232602949828620
  Pb   0.758742859439143   0.872823547555972   0.258925107625727
  Pb   0.964773630102575   0.084937585740587   0.226514980495517
  Pb   0.004332657100562   0.163415420029892   0.260725284756250
  Pb   0.896368145909098   0.147606458024634   0.253925541614223
  Pb   0.955541797798744   0.065299690509251   0.280307990741760
  Pb   0.945258938296954   0.245844518223490   0.234381440767384
  Pb   0.985059628442149   0.324280061682318   0.268560009182182
  Pb   0.877090330629168   0.308509889613449   0.261763439430662
  Pb   0.936571105844827   0.226129493723263   0.288122271043799
  Pb   0.925632037753804   0.406754847496897   0.242245139684555
  Pb   0.965636395512328   0.485038685426344   0.276389616696757
  Pb   0.857725286761404   0.469328812669839   0.269573477495901
  Pb   0.917573414215172   0.386916174783547   0.295931535265407
  Pb   0.906005841744118   0.567484860225230   0.250056667690208
  Pb   0.946070953280056   0.645696472724599   0.284215301119718
  Pb   0.838166798286439   0.629989634550207   0.277388157525195
  Pb   0.898273146055067   0.547596531333711   0.303737611068966
  Pb   0.886402464502658   0.728070074160899   0.257854150172527
  Pb   0.926408947678034   0.806412576539332   0.292072160681895
  Pb   0.818414568439060   0.790628247022651   0.285271049852739
  Pb   0.878567464894180   0.708298181501556   0.311613605131436
  Pb   0.866837107457888   0.888696556508418   0.265689930702064
  Pb   0.906904024283745   0.967220044083923   0.299939021630803
  Pb   0.798762921347009   0.951370532509020   0.293187567853577
  Pb   0.858666002937253   0.869136378444112   0.319574669803414
  Pb   0.006029146401156   0.563305478589247   0.310574193357631
  Pb   0.046670868257537   0.641581113546284   0.344834640539938
  Pb   0.939116182748293   0.625846915892640   0.337955317856709
  Pb   0.999810596177627   0.543422152631670   0.364318089686788
  Pb   0.986396477782535   0.724021890509698   0.318453250335262
  Pb   0.026922147816919   0.802556390903535   0.352782861324468
  Pb   0.919140363089399   0.786791604032650   0.345923406146799
  Pb   0.980149501555275   0.704163434577906   0.372244383784022
  Pb   0.966665808634603   0.884952911696626   0.326349558506168
  Pb   0.007234394257820   0.963696953121924   0.360607789961334
  Pb   0.899225632459195   0.947822494929821   0.353909854554898
  Pb   0.959772752460909   0.865570716994498   0.380290111670825
  Pb   0.257483317230584   0.872127733186870   0.011818189019273
  Pb   0.297273632934327   0.944827644974111   0.046079691336262
  Pb   0.193577361475169   0.936766209797444   0.037401930628171
  Pb   0.248123379900157   0.852699909071991   0.065430204587603
  Pb   0.457069033381485   0.051300866051653   0.034576113456204
  Pb   0.497299284148877   0.136104715979305   0.067188249228330
  Pb   0.389999236535661   0.120015621659299   0.060829476401952
  Pb   0.446572320967727   0.039328511133333   0.086826552775657
  Pb   0.439695844905955   0.216305511836029   0.042181465229065
  Pb   0.478975729865389   0.301188651766463   0.074866608175160
  Pb   0.373534116005588   0.285471206326043   0.068433862449231
  Pb   0.428439203304332   0.202278962805724   0.094224081952011
  Pb   0.425093462238697   0.385321853134918   0.049487751049366
  Pb   0.457922271265699   0.465594346934581   0.082751301058202
  Pb   0.351291873349081   0.450369704239551   0.076577070275663
  Pb   0.409096176308691   0.366300519929301   0.102037239642982
  Pb   0.397891413792799   0.548159878530135   0.057516771871368
  Pb   0.434911079961675   0.626473395742223   0.090830863297483
  Pb   0.326894628346412   0.612148212350456   0.084885321551808
  Pb   0.386822965846830   0.528619792145373   0.110056594256944
  Pb   0.373959106745966   0.708857334644106   0.066004300144984
  Pb   0.414509261120883   0.785121589481605   0.098800857917183
  Pb   0.305801927038488   0.770722065690623   0.092193721907745
  Pb   0.365218416720316   0.688856884766469   0.117961815831400
  Pb   0.355525394775652   0.864945241210948   0.072890315688211
  Pb   0.396007519186846   0.943674530911212   0.106095021573122
  Pb   0.288396410550203   0.929638193734398   0.098907575820549
  Pb   0.345890968665370   0.847935727047284   0.125369855547162
  Pb   0.554948421227101   0.056143302323177   0.093243769838116
  Pb   0.593279742868403   0.137166341641525   0.126697026159084
  Pb   0.485415355685117   0.120469040455165   0.120187690187699
  Pb   0.543224743418941   0.039112818790936   0.146293035826066
  Pb   0.535691799623482   0.218900645332202   0.100615901025837
  Pb   0.573387746937063   0.299630648548056   0.134466927360164
  Pb   0.466170128034039   0.283194096738686   0.127874691229256
  Pb   0.523865248925455   0.200789388306825   0.153927895629079
  Pb   0.515673548614692   0.382449705876012   0.108508870597392
  Pb   0.552909332009069   0.461622570978285   0.142320019209861
  Pb   0.445659450548770   0.445620851825625   0.135751979169472
  Pb   0.504000878396083   0.362840174186555   0.161731941507339
  Pb   0.494255796733165   0.544184000808979   0.116361546053107
  Pb   0.532486488808611   0.622148900237156   0.150158724095031
  Pb   0.424574485938127   0.606560968497913   0.143660568436377
  Pb   0.483611236738294   0.524156963117735   0.169578849599036
  Pb   0.473594537614898   0.703933292469299   0.124359068629009
  Pb   0.512707436506143   0.781807447039428   0.158046268914876
  Pb   0.404475148442030   0.766374421479184   0.151445043893361
  Pb   0.463425137674245   0.684517787011967   0.177430290852347
  Pb   0.454183999952196   0.862969952131971   0.132154555646917
  Pb   0.493379869151194   0.941744943743319   0.165778597994690
  Pb   0.385401182182873   0.926260732589665   0.159009203134915
  Pb   0.443831047960113   0.844551046417164   0.185201151190009
  Pb   0.651266727227133   0.055635067466983   0.152815562393494
  Pb   0.690046041166112   0.135016190020336   0.186763127433069
  Pb   0.582062238891127   0.118742991283715   0.180103412997199
  Pb   0.640621333248412   0.036826750273331   0.206328796127458
  Pb   0.631584909930416   0.217179965328833   0.160577168886917
  Pb   0.670276098370380   0.296404261397903   0.194599088169983
  Pb   0.562459776313132   0.280305960463739   0.187870440053808
  Pb   0.621171595213297   0.197972453806743   0.214111373536367
  Pb   0.611500168878206   0.378964062052160   0.168422659435690
  Pb   0.650399719149842   0.457605649617500   0.202418266892675
  Pb   0.542550308472373   0.441699025648917   0.195681055810986
  Pb   0.601599116707176   0.359258291275499   0.221898021447992
  Pb   0.591371252802093   0.539996040883758   0.176230156462763
  Pb   0.630587010617228   0.618215796137022   0.210214474976256
  Pb   0.522549738075755   0.602436532938919   0.203508873605435
  Pb   0.581873680964980   0.520206325572812   0.229696841563756
  Pb   0.571501532097500   0.700192153104288   0.184053054287865
  Pb   0.610890073125863   0.778481489127837   0.218052730862975
  Pb   0.502749994809517   0.762724127390612   0.211352050696394
  Pb   0.562072025343595   0.680729645237624   0.237542652169055
  Pb   0.551933494702002   0.860231466254078   0.191887544453773
  Pb   0.591343135349889   0.938920452868606   0.225891462598775
  Pb   0.483248477664085   0.923126001655830   0.219148368034580
  Pb   0.542338054010910   0.841156499036334   0.245421571248539
  Pb   0.748736469825770   0.052965516068056   0.213010457634840
  Pb   0.788271878703437   0.131710210457203   0.247168706850395
  Pb   0.680112903974618   0.115754598740066   0.240425971544614
  Pb   0.739288264211227   0.033568352101353   0.266792732977282
  Pb   0.729207780209711   0.214004335855657   0.220849293844500
  Pb   0.768981124404666   0.292710708064229   0.254985382194275
  Pb   0.660813988084607   0.276874176668628   0.248208227725668
  Pb   0.720169337309717   0.194537533589319   0.274599526210830
  Pb   0.709617408501911   0.375142316142303   0.228668229010700
  Pb   0.749629421141801   0.453621605401070   0.262770438145782
  Pb   0.641428527927038   0.437896026113627   0.255972620873942
  Pb   0.701178628390598   0.355551889636842   0.282340421227798
  Pb   0.689972809006820   0.535984070380758   0.236462455151169
  Pb   0.730056208313635   0.614284888939900   0.270582622139101
  Pb   0.621803971876780   0.598593762650251   0.263787144427723
  Pb   0.681928331981462   0.516357135158124   0.290093867553744
  Pb   0.670260112031623   0.696483274791794   0.244292033429036
  Pb   0.710237681068354   0.774836314735961   0.278488242070053
  Pb   0.601949392528265   0.759094684612812   0.271701769020114
  Pb   0.662161920492413   0.676933211347387   0.297988393296612
  Pb   0.650544541421980   0.856946087319515   0.252177611431218
  Pb   0.690486022010764   0.935512303513205   0.286428045558802
  Pb   0.582173357524509   0.919715955531897   0.279638015295582
  Pb   0.642060308987135   0.837520828037904   0.306016717575321
  Pb   0.847481091257411   0.049458801755651   0.273539615156299
  Pb   0.887952929744734   0.128036484254154   0.307768990396369
  Pb   0.779649425558269   0.112235008002552   0.301042969852597
  Pb   0.839293512618661   0.029994688380880   0.327492654336087
  Pb   0.828436233590653   0.210336817023814   0.281361898663855
  Pb   0.869408789597859   0.288837273598410   0.315561897410195
  Pb   0.761038227104377   0.273182950224928   0.308799067088141
  Pb   0.820918351077161   0.190816060340821   0.335304056741887
  Pb   0.809475536610723   0.371220630953515   0.289141937488164
  Pb   0.850671552903460   0.449567624548581   0.323314707820044
  Pb   0.742348506087779   0.434045317334901   0.316491131130720
  Pb   0.802916924004476   0.351652974245681   0.343004595846681
  Pb   0.790231902995180   0.531956217644463   0.296917972483542
  Pb   0.831251760292798   0.610211480626033   0.331128342260575
  Pb   0.722980089812848   0.594668935147507   0.324291872096740
  Pb   0.784255384505975   0.512302160439786   0.350670288574789
  Pb   0.770486823929605   0.692589239893791   0.304804855386603
  Pb   0.811088572875118   0.771011309016153   0.339152958729128
  Pb   0.702741175183785   0.755267468998631   0.332353652358664
  Pb   0.764314994011218   0.672893826149296   0.358623245650757
  Pb   0.750445726728794   0.853300815944552   0.312814769517480
  Pb   0.790920796702193   0.931933860866006   0.347250420280000
  Pb   0.682396780611992   0.916042339159980   0.340497376280220
  Pb   0.743326483816596   0.833758603069485   0.366931503173859
  Pb   0.947532482491913   0.045832166332850   0.334178363637519
  Pb   0.989153123889638   0.124433961894292   0.368329978010187
  Pb   0.880757765195166   0.108575912708210   0.361756247451394
  Pb   0.940473676332539   0.026545366350106   0.388124331951867
  Pb   0.929339825908031   0.206542801910932   0.341973926424589
  Pb   0.971778929968223   0.284969986459515   0.376147853405692
  Pb   0.863454146559176   0.269190434299785   0.369558394958391
  Pb   0.923813170196023   0.186844578284121   0.395928825648927
  Pb   0.911220376011410   0.367201197748760   0.349759651683967
  Pb   0.953574778219932   0.445409433747847   0.383948705062387
  Pb   0.845807926543589   0.429860113642907   0.377205623956181
  Pb   0.907292958867457   0.347381555503648   0.403811119162986
  Pb   0.892363924022094   0.527753372375831   0.357505278890593
  Pb   0.934117610220436   0.605795022684232   0.391688977868007
  Pb   0.826569035966378   0.590330279446029   0.384888364664393
  Pb   0.889300274714798   0.507695896889237   0.411354585019719
  Pb   0.872427992315588   0.688549811200183   0.365418272023236
  Pb   0.913605298585593   0.767331681386862   0.399789576220646
  Pb   0.805497830597726   0.751417156813950   0.393166165411701
  Pb   0.868645762182205   0.668734573394900   0.419114247756981
  Pb   0.851711235845734   0.849742156024602   0.373622106165764
  Pb   0.892238862069279   0.928802140007030   0.408098413254872
  Pb   0.783824171035080   0.912674474406289   0.401703215194866
  Pb   0.846046347105035   0.830924087930824   0.427981390164743
  Pb   0.014741142503272   0.363424420719582   0.410286855614358
  Pb   0.056873359011439   0.441648881407404   0.444332187138628
  Pb   0.952015642021668   0.425515642256069   0.438067363552588
  Pb   0.013511209940213   0.343696056007683   0.464165513696483
  Pb   0.995541070858513   0.523228596684657   0.418067429186207
  Pb   0.036538836690641   0.599476612235894   0.451976004025773
  Pb   0.931503750310696   0.584991126569780   0.445232215086540
  Pb   0.993450553593599   0.502987085991791   0.471940040916179
  Pb   0.976088455420810   0.683677364994207   0.425837521214448
  Pb   0.020738130980499   0.761607649972996   0.460587834430029
  Pb   0.911139777856961   0.749341868296834   0.453122441333593
  Pb   0.973862855604823   0.659986629358296   0.478195130097653
  Pb   0.954265056510988   0.846578290557050   0.434337129992356
  Pb   0.991906215285597   0.925434968229177   0.468365820706206
  Pb   0.884094316441804   0.911018559546160   0.462896139679669
  Pb   0.951141584421866   0.829365099738021   0.488780884454845
  Pb   0.247938220654322   0.032729655036877   0.017897357658154
  Pb   0.288581815974834   0.109478624770798   0.053021085185184
  Pb   0.184139252379920   0.099599354026889   0.044813306099599
  Pb   0.233870849909332   0.013130449573628   0.071927747909375
  Pb   0.240771730620696   0.197428899610467   0.025672575834158
  Pb   0.269755588459723   0.272269087109029   0.061119451525723
  Pb   0.163766607059724   0.260277101851286   0.052626150507959
  Pb   0.218201999193279   0.175405078367224   0.079540561126606
  Pb   0.215444714481503   0.357577590876420   0.036453478219641
  Pb   0.245076542336471   0.436933894960003   0.070249755629306
  Pb   0.137715585488544   0.423021520652592   0.062569600325344
  Pb   0.196441972385057   0.337490082657362   0.088145553475715
  Pb   0.183358018445526   0.525336845805577   0.045578073018503
  Pb   0.218995490084761   0.598472545167844   0.078417234352680
  Pb   0.111395287670534   0.584237243899692   0.070812364443069
  Pb   0.172100614173048   0.499995148875871   0.096688508627299
  Pb   0.157794982285856   0.681327516521992   0.052376444551206
  Pb   0.198680321747850   0.756861781237520   0.085001239457755
  Pb   0.092662782996914   0.742279208098579   0.077342702960096
  Pb   0.149986035564069   0.659825882770588   0.104202029027093
  Pb   0.143180404387309   0.839346557170265   0.057593082658106
  Pb   0.182220970819935   0.916436791080448   0.091388103567458
  Pb   0.076744913902955   0.902098085896418   0.083941524378149
  Pb   0.131776172560363   0.819197501941740   0.111022240447935
  Pb   0.128956621648030   0.000658181676376   0.064022394323572
  Pb   0.165930828676755   0.077618675237135   0.098678571281101
  Pb   0.059199001224609   0.062983378181964   0.091284594981234
  Pb   0.114439640548778   0.979649947052731   0.118153630338881
  Pb   0.339133629069246   0.024860696335160   0.079716331189918
  Pb   0.378165434196637   0.104948745668944   0.113426621228608
  Pb   0.272079922954483   0.091084064732622   0.106181845309380
  Pb   0.327837944699697   0.008179542406307   0.132678381240966
  Pb   0.323082684816988   0.188003803177046   0.087207658579693
  Pb   0.359450391158757   0.267701053536514   0.121153595586468
  Pb   0.253155107860549   0.253248778783708   0.114076209571282
  Pb   0.309538320830565   0.169836478396374   0.140288756348994
  Pb   0.302838926169593   0.351484205182880   0.095339576175796
  Pb   0.338518407059214   0.430288157738747   0.129159385724860
  Pb   0.231424200678994   0.415574699869332   0.122346862904432
  Pb   0.289592075259115   0.331889198311270   0.148217513490498
  Pb   0.279584695474505   0.514232561987517   0.103644175628737
  Pb   0.316811063386216   0.591492837345645   0.137110937199929
  Pb   0.209215323320087   0.576745371066376   0.130317430696025
  Pb   0.268441132005260   0.493487032515449   0.156214131950578
  Pb   0.257334251123436   0.674309252004202   0.111327521058339
  Pb   0.296513668848779   0.751391548517608   0.144685232319630
  Pb   0.189064224637920   0.736629291073075   0.137698970145518
  Pb   0.247704245078021   0.654054893890438   0.163966993907076
  Pb   0.238414246698084   0.833627153068861   0.118303550381690
  Pb   0.277807464233112   0.911358900067623   0.152037157102790
  Pb   0.170688298575136   0.896696354650943   0.144913634388126
  Pb   0.228279647469512   0.814183838019954   0.171457224326187
  Pb   0.221019776765700   0.994003878438637   0.125452847304087
  Pb   0.259478109646361   0.072259890807247   0.159557951811409
  Pb   0.152394119467707   0.057483033399072   0.152429604943752
  Pb   0.209587298783473   0.974694896365347   0.178962948665667
  Pb   0.435306110917289   0.023161901994973   0.139631595897035
  Pb   0.474217189185751   0.102703798056984   0.173407719413301
  Pb   0.366664528992285   0.087192662024659   0.166577644684816
  Pb   0.424651990632629   0.005071393161186   0.192871829090101
  Pb   0.416438075005927   0.184879797473563   0.147223602298037
  Pb   0.454821062046349   0.264372564932367   0.181137971910307
  Pb   0.347431350399928   0.248846962822705   0.174323286669272
  Pb   0.405506304812504   0.166280825685161   0.200565632966434
  Pb   0.396700639025653   0.347081667844523   0.155040928189218
  Pb   0.434843428751746   0.425934628572337   0.188963801869655